unsat
(forall ((A (_ BitVec 32))
         (B (_ BitVec 4))
         (C (_ BitVec 1))
         (D (_ BitVec 1))
         (E (_ BitVec 1))
         (F (_ BitVec 1))
         (G (_ BitVec 3))
         (H (_ BitVec 3))
         (I (_ BitVec 3))
         (J (_ BitVec 1))
         (K (_ BitVec 1))
         (L (_ BitVec 20))
         (M (_ BitVec 4))
         (N (_ BitVec 2))
         (O (_ BitVec 4))
         (P (_ BitVec 20))
         (Q (_ BitVec 1))
         (R (_ BitVec 20))
         (S (_ BitVec 1))
         (T (_ BitVec 28))
         (U (_ BitVec 18))
         (V (_ BitVec 18))
         (W (_ BitVec 1))
         (X (_ BitVec 1))
         (Y (_ BitVec 30))
         (Z (_ BitVec 4))
         (A1 (_ BitVec 1))
         (B1 (_ BitVec 1))
         (C1 (_ BitVec 1))
         (D1 (_ BitVec 28))
         (E1 (_ BitVec 1))
         (F1 (_ BitVec 1))
         (G1 (_ BitVec 1))
         (H1 (_ BitVec 1))
         (I1 (_ BitVec 28))
         (J1 (_ BitVec 1))
         (K1 (_ BitVec 1))
         (L1 (_ BitVec 1))
         (M1 (_ BitVec 18))
         (N1 (_ BitVec 1))
         (O1 (_ BitVec 32))
         (P1 (_ BitVec 16))
         (Q1 (_ BitVec 4))
         (R1 (_ BitVec 1))
         (S1 (_ BitVec 1))
         (T1 (_ BitVec 1))
         (U1 (_ BitVec 1))
         (V1 (_ BitVec 1))
         (W1 (_ BitVec 16))
         (X1 (_ BitVec 1))
         (Y1 (_ BitVec 20))
         (Z1 (_ BitVec 1))
         (A2 (_ BitVec 1))
         (B2 (_ BitVec 3))
         (C2 (_ BitVec 1))
         (D2 (_ BitVec 1))
         (E2 (_ BitVec 1))
         (F2 (_ BitVec 1))
         (G2 (_ BitVec 1))
         (H2 (_ BitVec 4))
         (I2 (_ BitVec 1))
         (J2 (_ BitVec 2))
         (K2 (_ BitVec 1))
         (L2 (_ BitVec 1))
         (M2 (_ BitVec 1))
         (N2 (_ BitVec 1))
         (O2 (_ BitVec 1))
         (P2 (_ BitVec 1))
         (Q2 (_ BitVec 1))
         (R2 (_ BitVec 1))
         (S2 (_ BitVec 1))
         (T2 (_ BitVec 18))
         (U2 (_ BitVec 18))
         (V2 (_ BitVec 1))
         (W2 (_ BitVec 20))
         (X2 (_ BitVec 1))
         (Y2 (_ BitVec 16))
         (Z2 (_ BitVec 1))
         (A3 (_ BitVec 16))
         (B3 (_ BitVec 1))
         (C3 (_ BitVec 1))
         (D3 (_ BitVec 1))
         (E3 (_ BitVec 1))
         (F3 (_ BitVec 1))
         (G3 (_ BitVec 1))
         (H3 (_ BitVec 1))
         (I3 (_ BitVec 1))
         (J3 (_ BitVec 1))
         (K3 (_ BitVec 1))
         (L3 (_ BitVec 1))
         (M3 (_ BitVec 1))
         (N3 (_ BitVec 30))
         (O3 (_ BitVec 4))
         (P3 (_ BitVec 16))
         (Q3 (_ BitVec 2))
         (R3 (_ BitVec 1))
         (S3 (_ BitVec 1))
         (T3 (_ BitVec 1))
         (U3 (_ BitVec 1))
         (V3 (_ BitVec 1))
         (W3 (_ BitVec 1))
         (X3 (_ BitVec 1))
         (Y3 (_ BitVec 1))
         (Z3 (_ BitVec 1))
         (A4 (_ BitVec 1))
         (B4 (_ BitVec 1))
         (C4 (_ BitVec 6))
         (D4 (_ BitVec 1))
         (E4 (_ BitVec 1))
         (F4 (_ BitVec 1))
         (G4 (_ BitVec 1))
         (H4 (_ BitVec 32))
         (I4 (_ BitVec 1))
         (J4 (_ BitVec 1))
         (K4 (_ BitVec 1))
         (L4 (_ BitVec 1))
         (M4 (_ BitVec 1))
         (N4 (_ BitVec 1))
         (O4 (_ BitVec 30))
         (P4 (_ BitVec 1))
         (Q4 (_ BitVec 32))
         (R4 (_ BitVec 4))
         (S4 (_ BitVec 1))
         (T4 (_ BitVec 1))
         (U4 (_ BitVec 4))
         (V4 (_ BitVec 1))
         (W4 (_ BitVec 32)))
  (! (let ((a!1 (or (= R1 #b1)
                    (not (= ((_ extract 3 3) B) #b0))
                    (not (= ((_ extract 0 0) B) #b0))
                    (not (= ((_ extract 1 1) B) #b0))
                    (= N2 #b0)
                    (not (= ((_ extract 2 2) B) #b0))))
           (a!2 (or (not (= ((_ extract 0 0) M) #b1)) (= H3 #b1)))
           (a!3 (or (not (= ((_ extract 0 0) J2) #b1)) (= F4 #b1)))
           (a!4 (or (not (= Q1 #x0))
                    (= L1 #b0)
                    (= D2 #b1)
                    (not (= ((_ extract 1 1) O3) #b1))))
           (a!5 (or (not (= ((_ extract 0 0) C4) #b1)) (= H3 #b1)))
           (a!6 (or (= ((_ extract 0 0) P1) #b0)
                    (not (= ((_ extract 15 1) Y2) ((_ extract 15 1) P3)))
                    (= R ((_ extract 29 10) Y))
                    (not (= E #b0))
                    (= S1 #b0)
                    ((_ bit2bool 0) P3)
                    ((_ bit2bool 0) Y2)
                    (= I1 D1)
                    (not (= A4 #b0))
                    (= P ((_ extract 31 12) W4))
                    (not (= C2 S1))
                    (not (= L ((_ extract 31 12) W4)))
                    (not (= ((_ extract 29 10) Y) L))))
           (a!7 (not (= I1 (concat M1 ((_ extract 9 0) Y)))))
           (a!9 (or (not (= ((_ extract 1 1) Q3) #b1)) (= G2 #b0)))
           (a!10 (or (= C2 #b0)
                     (= Y1 ((_ extract 29 10) Y))
                     (= L ((_ extract 29 10) Y))
                     (= P ((_ extract 29 10) Y))
                     (not (= ((_ extract 15 1) W1) ((_ extract 15 1) P3)))
                     (not (= E #b0))
                     ((_ bit2bool 0) W1)
                     (= I1 D1)
                     (not (= A4 #b0))
                     (not (= ((_ extract 29 10) Y) R))))
           (a!11 (or (= C2 #b0)
                     (= ((_ extract 0 0) Y2) #b0)
                     (= P ((_ extract 29 10) Y))
                     (= R ((_ extract 29 10) Y))
                     (not (= E #b0))
                     (= E4 #b0)
                     ((_ bit2bool 0) P3)
                     (not (= ((_ extract 0 0) Q3) #b1))
                     (= I1 D1)))
           (a!12 (or (= C2 #b0)
                     (= Y1 ((_ extract 29 10) Y))
                     (= L ((_ extract 29 10) Y))
                     (not (= P ((_ extract 29 10) Y)))
                     (not (= ((_ extract 15 1) A3) ((_ extract 15 1) P3)))
                     (= R ((_ extract 29 10) Y))
                     (not (= E #b0))
                     ((_ bit2bool 0) A3)
                     (= I1 D1)
                     (not (= A4 #b0)))))
     (let ((a!8 (or (= Y1 ((_ extract 29 10) Y))
                    (= L ((_ extract 29 10) Y))
                    (= P ((_ extract 29 10) Y))
                    (not (= E #b0))
                    (not (= G2 #b0))
                    (not (= C2 #b1))
                    a!7
                    (= (concat M1 ((_ extract 9 0) Y)) ((_ extract 27 0) Y))
                    (not (= D1 I1)))))
     (let ((a!13 (and (or (= J3 #b0) (= R3 #b1))
                      (or (= E2 #b0) (= (bvnot X) F))
                      (or (= C2 #b0) (not (= X #b0)))
                      (or (= J3 #b0) (= S1 #b0) (= V2 #b0) (= P2 #b1))
                      (or (= C2 #b0) (not (= R2 #b1)) (= H3 #b1))
                      a!1
                      (or (not ((_ bit2bool 0) C1)) (not ((_ bit2bool 0) Z2)))
                      (or (= E4 #b0) ((_ bit2bool 0) R1) (= A4 #b0))
                      (or (= F2 #b1) (= K2 #b0))
                      (or (not (= C2 #b1)) (= Z B) (= R3 #b1))
                      (or ((_ bit2bool 0) Z3)
                          (not ((_ bit2bool 0) C2))
                          (= Y N3))
                      (or (= E2 #b0) (not (= S1 #b1)) (= V3 #b1))
                      (or (= Z1 #b0) (= H3 #b1))
                      (or (not (= C1 #b1)) ((_ bit2bool 0) R2))
                      a!2
                      (or (not ((_ bit2bool 0) G1)) (= L1 #b0))
                      a!3
                      (or (= L1 #b1) (not (= A4 #b0)) (not (= C2 #b1)))
                      (or (not (= L1 #b0)) (not (= R1 #b1)) (not (= C2 #b1)))
                      (or ((_ bit2bool 0) Z3) (= L1 #b0) (= Z B))
                      (or ((_ bit2bool 0) G3) (= L1 #b0))
                      (or ((_ bit2bool 0) Z3)
                          (not (= A4 #b0))
                          (= L1 #b0)
                          (= I1 D1))
                      a!4
                      (or ((_ bit2bool 0) Z3)
                          (not (= R1 #b1))
                          (= E #b0)
                          (= I1 D1))
                      (or ((_ bit2bool 0) Z3)
                          (not (= R1 #b1))
                          (= J4 #b1)
                          (= I1 D1))
                      (or ((_ bit2bool 0) Z3)
                          (not (= R1 #b1))
                          (= C2 #b0)
                          (= I1 D1))
                      (or (= L ((_ extract 29 10) Y))
                          (= E2 #b0)
                          (= I1 D1)
                          (not (= A4 #b0))
                          (not (= Q3 #b10)))
                      (or (= E2 #b0) (= D1 ((_ extract 27 0) N3)))
                      a!5
                      (or (= T1 #b0) (not (= X #b0)))
                      (or (not (= C2 #b1)) (not (= Q1 #x0)))
                      (or ((_ bit2bool 0) E4) (not (= R1 #b1)) (= C2 #b0))
                      (or (not (= B4 #b1)) (not (= R3 #b0)))
                      a!6
                      (or (= E2 #b0) (= S1 #b1) (not (= X #b1)) (= Y3 #b1))
                      (or (not (= H1 #b1))
                          (not (= T1 #b0))
                          (= L1 #b0)
                          (= C2 S1))
                      (or (not (= B4 #b1))
                          (not (= T1 #b0))
                          (= L1 #b0)
                          (= C2 S1))
                      (or (= J3 #b0)
                          (= S1 #b0)
                          (not (= T1 #b0))
                          (= I1 D1)
                          (not (= A4 #b0))
                          (not (= C2 S1))
                          (= C3 #b1))
                      (or (= E2 #b0)
                          ((_ bit2bool 1) Q3)
                          (not (= D4 #b0))
                          (= ((_ extract 15 1) P3) ((_ extract 15 1) A3))
                          (not ((_ bit2bool 0) Q3)))
                      (or (= C2 #b0) (= S1 #b0) (= V2 #b0) (= P2 #b1))
                      (or (= C2 #b0)
                          (= Y1 ((_ extract 29 10) Y))
                          (= L ((_ extract 29 10) Y))
                          (not (= R1 #b1))
                          (= I1 D1)
                          (not ((_ bit2bool 1) Q3)))
                      (or (= Y1 ((_ extract 29 10) Y))
                          (= P ((_ extract 29 10) Y))
                          (= E2 #b0)
                          (= I1 D1)
                          (not (= A4 #b0))
                          (not ((_ bit2bool 0) Q3)))
                      (or (= Y1 ((_ extract 29 10) Y))
                          (= E2 #b0)
                          (= E4 #b0)
                          (= I1 D1)
                          (not (= Q3 #b11)))
                      (or (not (= O3 #x0))
                          (= Q1 #x0)
                          (= I1 D1)
                          (not (= A4 #b0))
                          (= D2 #b1))
                      (or (not (= E #b0))
                          (not (= G2 #b0))
                          (= E1 V2)
                          (not (= C2 #b1))
                          (not (= Q3 #b00)))
                      a!8
                      a!9
                      (not (= N #b11))
                      a!10
                      (or (= E4 #b0) (= I1 D1) (not (= C2 #b1)) (= R3 #b1))
                      (or (= E #b0)
                          (= ((_ extract 0 0) P1) #b0)
                          ((_ bit2bool 0) P3)
                          (= Y N3)
                          (not (= Q3 #b11)))
                      (or (= ((_ extract 0 0) P1) #b0)
                          (= L ((_ extract 29 10) Y))
                          (= P ((_ extract 29 10) Y))
                          (= R ((_ extract 29 10) Y))
                          ((_ bit2bool 0) P3)
                          (not (= A4 #b0))
                          (= I1 ((_ extract 27 0) N3))
                          (not (= E #b1)))
                      (or (= E #b0)
                          (= ((_ extract 0 0) P1) #b0)
                          (= L ((_ extract 29 10) Y))
                          (= P ((_ extract 29 10) Y))
                          (= R ((_ extract 29 10) Y))
                          ((_ bit2bool 0) P3)
                          (= Y N3))
                      (or (= C2 #b0) (= R3 #b1) (= Y N3))
                      (or (not (= A4 #b0))
                          (not (= C2 #b1))
                          (not (= Y N3))
                          (= I1 ((_ extract 27 0) N3)))
                      (or (= ((_ extract 1 1) Q3) #b0)
                          (= ((_ extract 0 0) P1) #b0)
                          (= L ((_ extract 29 10) Y))
                          (= E2 #b0)
                          ((_ bit2bool 0) P3)
                          (= Y N3))
                      (or (= P ((_ extract 29 10) Y))
                          (= E2 #b0)
                          ((_ bit2bool 1) Q3)
                          (= I1 D1)
                          (not (= A4 #b0))
                          (not ((_ bit2bool 0) Q3)))
                      (or (not (= A4 #b0))
                          (not (= C2 #b1))
                          (= I1 ((_ extract 27 0) Y)))
                      (or (not (= A4 #b0))
                          (not (= C2 #b1))
                          (not (= Y O4))
                          (= I1 ((_ extract 27 0) O4)))
                      (or (= I1 D1)
                          (not (= A4 #b0))
                          (not (= C2 #b1))
                          (not (= Y N3)))
                      (or (not (= R1 #b1))
                          (not (= O3 #x0))
                          (= Q1 #x0)
                          (= I1 D1)
                          (= D2 #b1))
                      (or (not (= R1 #b1))
                          (not (= C1 #b1))
                          (not (= N1 #b1))
                          (= I1 D1))
                      (or (= E4 #b0)
                          (not (= C1 #b1))
                          (not (= N1 #b1))
                          (= I1 D1))
                      (or (= L1 #b0) (= F4 #b1) (not (= R1 #b1)) (= I1 D1))
                      (or (= L1 #b0) (= F4 #b1) (= I1 D1) (not (= A4 #b0)))
                      a!11
                      (or (= T1 #b0) (not (= R1 #b1)))
                      (or (not (= H1 #b1)) (not (= R1 #b1)))
                      (or (= C2 #b0)
                          (= ((_ extract 15 1) P1) ((_ extract 15 1) P3))
                          (= P ((_ extract 29 10) Y))
                          (not (= R1 #b1))
                          (not ((_ bit2bool 0) Q3))
                          (= I1 ((_ extract 27 0) N3)))
                      (or (not (= B4 #b1)) (not (= R1 #b1)))
                      (or (= J3 #b0) (not (= R1 #b1)))
                      (or (= E #b0) (= G2 #b0))
                      (or (= T1 #b0) (not (= A4 #b0)))
                      (or (not (= A4 #b0)) (not (= H1 #b1)))
                      (or (not (= A4 #b0)) (not (= B4 #b1)))
                      (or (= J3 #b0) (not (= A4 #b0)) (= U1 #b0))
                      (or (= J3 #b0)
                          (= F4 #b1)
                          (not (= A4 #b0))
                          (not (= C2 #b1))
                          (= O1 A))
                      a!12
                      (or (not (= H1 #b1)) (= R3 #b1))
                      (or ((_ bit2bool 0) Z3) (= V1 #b0) (= Y N3))
                      (or (= L1 #b0)
                          (not (= C1 #b0))
                          (= R3 #b1)
                          (= R2 #b0)
                          (= U3 #b1))
                      (or (not (= X #b0)) (not (= L1 #b1)))
                      (or (not (= X #b0)) (not (= H1 #b1)))
                      (or (not (= B4 #b1)) (not (= X #b0))))))
       (= (INV!slice!1 A
                       B
                       C
                       D
                       E
                       F
                       G
                       H
                       I
                       J
                       K
                       L
                       M
                       N
                       O
                       P
                       Q
                       R
                       S
                       T
                       U
                       V
                       W
                       X
                       Y
                       Z
                       A1
                       B1
                       C1
                       D1
                       E1
                       F1
                       G1
                       H1
                       I1
                       J1
                       K1
                       L1
                       M1
                       N1
                       O1
                       P1
                       Q1
                       R1
                       S1
                       T1
                       U1
                       V1
                       W1
                       X1
                       Y1
                       Z1
                       A2
                       B2
                       C2
                       D2
                       E2
                       F2
                       G2
                       H2
                       I2
                       J2
                       K2
                       L2
                       M2
                       N2
                       O2
                       P2
                       Q2
                       R2
                       S2
                       T2
                       U2
                       V2
                       W2
                       X2
                       Y2
                       Z2
                       A3
                       B3
                       C3
                       D3
                       E3
                       F3
                       G3
                       H3
                       I3
                       J3
                       K3
                       L3
                       M3
                       N3
                       O3
                       P3
                       Q3
                       R3
                       S3
                       T3
                       U3
                       V3
                       W3
                       X3
                       Y3
                       Z3
                       A4
                       B4
                       C4
                       D4
                       E4
                       F4
                       G4
                       H4
                       I4
                       J4
                       K4
                       L4
                       M4
                       N4
                       O4
                       P4
                       Q4
                       R4
                       S4
                       T4
                       U4
                       V4
                       W4)
          a!13))))
     :weight 0))
